NAME : ct_6_n_3_k10_t_99
COMMENT : (ct_6_n_3_k10_t_99, Min no of trucks: 3, Optimal value: 1000000000, Split: Yes)
TYPE : SDVRP
DIMENSION : 7
EDGE_WEIGHT_TYPE : EUC_2D
CAPACITY : 10
NODE_COORD_SECTION
1 100 100
2 159 30
3 34 131
4 90 45
5 122 92
6 42 42
7 124 142
DEMAND_SECTION
1 0
2 5.0
3 6.2
4 3.8
5 3.3
6 4.6
7 6.8
DEPOT_SECTION
 1
EOF